Maximize
	obj: 190.05 x1 + 146.19 x2 + 112.46 x3 + 86.5 x4 + 66.54 x5 + 51.19 x6 + 39.37 x7 + 30.29 x8 + 23.3 x9 + 17.92 x10 + 13.79 x11 + 10.6 x12 + 8.16 x13 + 6.27 x14 + 4.83 x15 + 3.71 x16 + 2.86 x17 + 2.2 x18 + 1.69 x19 + 1 x20
Subject To
	c1: 1 x1 <= 1.4
	c2: 1.69 x1 + 1 x2 <= 1.96
	c3: 2.2 x1 + 1.69 x2 + 1 x3 <= 2.74
	c4: 2.86 x1 + 2.2 x2 + 1.69 x3 + 1 x4 <= 3.84
	c5: 3.71 x1 + 2.86 x2 + 2.2 x3 + 1.69 x4 + 1 x5 <= 5.38
	c6: 4.83 x1 + 3.71 x2 + 2.86 x3 + 2.2 x4 + 1.69 x5 + 1 x6 <= 7.53
	c7: 6.27 x1 + 4.83 x2 + 3.71 x3 + 2.86 x4 + 2.2 x5 + 1.69 x6 + 1 x7 <= 10.54
	c8: 8.16 x1 + 6.27 x2 + 4.83 x3 + 3.71 x4 + 2.86 x5 + 2.2 x6 + 1.69 x7 + 1 x8 <= 14.76
	c9: 10.6 x1 + 8.16 x2 + 6.27 x3 + 4.83 x4 + 3.71 x5 + 2.86 x6 + 2.2 x7 + 1.69 x8 + 1 x9 <= 20.66
	c10: 13.79 x1 + 10.6 x2 + 8.16 x3 + 6.27 x4 + 4.83 x5 + 3.71 x6 + 2.86 x7 + 2.2 x8 + 1.69 x9 + 1 x10 <= 28.93
	c11: 17.92 x1 + 13.79 x2 + 10.6 x3 + 8.16 x4 + 6.27 x5 + 4.83 x6 + 3.71 x7 + 2.86 x8 + 2.2 x9 + 1.69 x10 + 1 x11 <= 40.5
	c12: 23.3 x1 + 17.92 x2 + 13.79 x3 + 10.6 x4 + 8.16 x5 + 6.27 x6 + 4.83 x7 + 3.71 x8 + 2.86 x9 + 2.2 x10 + 1.69 x11 + 1 x12 <= 56.69
	c13: 30.29 x1 + 23.3 x2 + 17.92 x3 + 13.79 x4 + 10.6 x5 + 8.16 x6 + 6.27 x7 + 4.83 x8 + 3.71 x9 + 2.86 x10 + 2.2 x11 + 1.69 x12 + 1 x13 <= 79.37
	c14: 39.37 x1 + 30.29 x2 + 23.3 x3 + 17.92 x4 + 13.79 x5 + 10.6 x6 + 8.16 x7 + 6.27 x8 + 4.83 x9 + 3.71 x10 + 2.86 x11 + 2.2 x12 + 1.69 x13 + 1 x14 <= 111.12
	c15: 51.19 x1 + 39.37 x2 + 30.29 x3 + 23.3 x4 + 17.92 x5 + 13.79 x6 + 10.6 x7 + 8.16 x8 + 6.27 x9 + 4.83 x10 + 3.71 x11 + 2.86 x12 + 2.2 x13 + 1.69 x14 + 1 x15 <= 155.57
	c16: 66.54 x1 + 51.19 x2 + 39.37 x3 + 30.29 x4 + 23.3 x5 + 17.92 x6 + 13.79 x7 + 10.6 x8 + 8.16 x9 + 6.27 x10 + 4.83 x11 + 3.71 x12 + 2.86 x13 + 2.2 x14 + 1.69 x15 + 1 x16 <= 217.8
	c17: 86.5 x1 + 66.54 x2 + 51.19 x3 + 39.37 x4 + 30.29 x5 + 23.3 x6 + 17.92 x7 + 13.79 x8 + 10.6 x9 + 8.16 x10 + 6.27 x11 + 4.83 x12 + 3.71 x13 + 2.86 x14 + 2.2 x15 + 1.69 x16 + 1 x17 <= 304.91
	c18: 112.46 x1 + 86.5 x2 + 66.54 x3 + 51.19 x4 + 39.37 x5 + 30.29 x6 + 23.3 x7 + 17.92 x8 + 13.79 x9 + 10.6 x10 + 8.16 x11 + 6.27 x12 + 4.83 x13 + 3.71 x14 + 2.86 x15 + 2.2 x16 + 1.69 x17 + 1 x18 <= 426.88
	c19: 146.19 x1 + 112.46 x2 + 86.5 x3 + 66.54 x4 + 51.19 x5 + 39.37 x6 + 30.29 x7 + 23.3 x8 + 17.92 x9 + 13.79 x10 + 10.6 x11 + 8.16 x12 + 6.27 x13 + 4.83 x14 + 3.71 x15 + 2.86 x16 + 2.2 x17 + 1.69 x18 + 1 x19 <= 597.63
	c20: 190.05 x1 + 146.19 x2 + 112.46 x3 + 86.5 x4 + 66.54 x5 + 51.19 x6 + 39.37 x7 + 30.29 x8 + 23.3 x9 + 17.92 x10 + 13.79 x11 + 10.6 x12 + 8.16 x13 + 6.27 x14 + 4.83 x15 + 3.71 x16 + 2.86 x17 + 2.2 x18 + 1.69 x19 + 1 x20 <= 836.68
End